\ENCODING=ISO-8859-1
\Problem name: bSARP

Maximize
 obj1: 8.7006 x(0,14,0) + 8.7006 x(0,15,1) + 8.7006 x(0,16,2)
       + 8.7006 x(0,17,3) + 8.7006 x(0,18,4) + 8.7006 x(0,19,5)
       + 8.7006 x(0,20,6) + 6.8994 x(1,14,0) + 6.8994 x(1,15,1)
       + 6.8994 x(1,16,2) + 6.8994 x(1,17,3) + 6.8994 x(1,18,4)
       + 6.8994 x(1,19,5) + 6.8994 x(1,20,6) + 13.158 x(2,14,0)
       + 13.158 x(2,15,1) + 13.158 x(2,16,2) + 13.158 x(2,17,3)
       + 13.158 x(2,18,4) + 13.158 x(2,19,5) + 13.158 x(2,20,6)
       - 3.3682 x(3,6,0) - 3.3682 x(3,6,1) - 3.3682 x(3,6,2) - 3.3682 x(3,6,3)
       - 3.3682 x(3,6,4) - 3.3682 x(3,6,5) - 3.3682 x(3,6,6) + 8.5182 x(3,14,0)
       + 8.5182 x(3,15,1) + 8.5182 x(3,16,2) + 8.5182 x(3,17,3)
       + 8.5182 x(3,18,4) + 8.5182 x(3,19,5) + 8.5182 x(3,20,6)
       + 8.0622 x(4,14,0) + 8.0622 x(4,15,1) + 8.0622 x(4,16,2)
       + 8.0622 x(4,17,3) + 8.0622 x(4,18,4) + 8.0622 x(4,19,5)
       + 8.0622 x(4,20,6) + 8.1876 x(5,14,0) + 8.1876 x(5,15,1)
       + 8.1876 x(5,16,2) + 8.1876 x(5,17,3) + 8.1876 x(5,18,4)
       + 8.1876 x(5,19,5) + 8.1876 x(5,20,6) - 4.2564 x(6,0,0)
       - 4.2564 x(6,0,1) - 4.2564 x(6,0,2) - 4.2564 x(6,0,3) - 4.2564 x(6,0,4)
       - 4.2564 x(6,0,5) - 4.2564 x(6,0,6) + 2.0364 x(6,1,0) + 2.0364 x(6,1,1)
       + 2.0364 x(6,1,2) + 2.0364 x(6,1,3) + 2.0364 x(6,1,4) + 2.0364 x(6,1,5)
       + 2.0364 x(6,1,6) + 3.8028 x(6,2,0) + 3.8028 x(6,2,1) + 3.8028 x(6,2,2)
       + 3.8028 x(6,2,3) + 3.8028 x(6,2,4) + 3.8028 x(6,2,5) + 3.8028 x(6,2,6)
       + 1.7696 x(6,4,0) + 1.7696 x(6,4,1) + 1.7696 x(6,4,2) + 1.7696 x(6,4,3)
       + 1.7696 x(6,4,4) + 1.7696 x(6,4,5) + 1.7696 x(6,4,6) + 6.2316 x(6,5,0)
       + 6.2316 x(6,5,1) + 6.2316 x(6,5,2) + 6.2316 x(6,5,3) + 6.2316 x(6,5,4)
       + 6.2316 x(6,5,5) + 6.2316 x(6,5,6) + 10.9236 x(6,14,0)
       + 10.9236 x(6,15,1) + 10.9236 x(6,16,2) + 10.9236 x(6,17,3)
       + 10.9236 x(6,18,4) + 10.9236 x(6,19,5) + 10.9236 x(6,20,6)
       - 12.9904 x(7,0,0) - 11.868 x(7,1,0) - 9.1356 x(7,2,0) - 10.12 x(7,3,0)
       - 4.4988 x(7,4,0) - 7.084 x(7,5,0) - 7.2864 x(7,6,0) - 12.9904 x(8,0,1)
       - 11.868 x(8,1,1) - 9.1356 x(8,2,1) - 10.12 x(8,3,1) - 4.4988 x(8,4,1)
       - 7.084 x(8,5,1) - 7.2864 x(8,6,1) - 12.9904 x(9,0,2) - 11.868 x(9,1,2)
       - 9.1356 x(9,2,2) - 10.12 x(9,3,2) - 4.4988 x(9,4,2) - 7.084 x(9,5,2)
       - 7.2864 x(9,6,2) - 12.9904 x(10,0,3) - 11.868 x(10,1,3)
       - 9.1356 x(10,2,3) - 10.12 x(10,3,3) - 4.4988 x(10,4,3)
       - 7.084 x(10,5,3) - 7.2864 x(10,6,3) - 12.9904 x(11,0,4)
       - 11.868 x(11,1,4) - 9.1356 x(11,2,4) - 10.12 x(11,3,4)
       - 4.4988 x(11,4,4) - 7.084 x(11,5,4) - 7.2864 x(11,6,4)
       - 12.9904 x(12,0,5) - 11.868 x(12,1,5) - 9.1356 x(12,2,5)
       - 10.12 x(12,3,5) - 4.4988 x(12,4,5) - 7.084 x(12,5,5)
       - 7.2864 x(12,6,5) - 12.9904 x(13,0,6) - 11.868 x(13,1,6)
       - 9.1356 x(13,2,6) - 10.12 x(13,3,6) - 4.4988 x(13,4,6)
       - 7.084 x(13,5,6) - 7.2864 x(13,6,6) + 0 u(0) + 0 u(1) + 0 u(2) + 0 u(3)
       + 0 u(4) + 0 u(5) + 0 u(6) + 0 uf(0) + 0 uf(1) + 0 uf(2) + 0 uf(3)
       + 0 uf(4) + 0 uf(5) + 0 uf(6)
Subject To
 Constraint1_0:   x(0,14,0) + x(0,15,1) + x(0,16,2) + x(0,17,3) + x(0,18,4)
                  + x(0,19,5) + x(0,20,6) + x(1,14,0) + x(1,15,1) + x(1,16,2)
                  + x(1,17,3) + x(1,18,4) + x(1,19,5) + x(1,20,6) + x(2,14,0)
                  + x(2,15,1) + x(2,16,2) + x(2,17,3) + x(2,18,4) + x(2,19,5)
                  + x(2,20,6) + x(3,6,0) + x(3,6,1) + x(3,6,2) + x(3,6,3)
                  + x(3,6,4) + x(3,6,5) + x(3,6,6) + x(3,14,0) + x(3,15,1)
                  + x(3,16,2) + x(3,17,3) + x(3,18,4) + x(3,19,5) + x(3,20,6)
                  + x(4,14,0) + x(4,15,1) + x(4,16,2) + x(4,17,3) + x(4,18,4)
                  + x(4,19,5) + x(4,20,6) + x(5,14,0) + x(5,15,1) + x(5,16,2)
                  + x(5,17,3) + x(5,18,4) + x(5,19,5) + x(5,20,6)  = 1
 Constraint1_1:   x(6,0,0) + x(6,0,1) + x(6,0,2) + x(6,0,3) + x(6,0,4)
                  + x(6,0,5) + x(6,0,6) + x(6,1,0) + x(6,1,1) + x(6,1,2)
                  + x(6,1,3) + x(6,1,4) + x(6,1,5) + x(6,1,6) + x(6,2,0)
                  + x(6,2,1) + x(6,2,2) + x(6,2,3) + x(6,2,4) + x(6,2,5)
                  + x(6,2,6) + x(6,4,0) + x(6,4,1) + x(6,4,2) + x(6,4,3)
                  + x(6,4,4) + x(6,4,5) + x(6,4,6) + x(6,5,0) + x(6,5,1)
                  + x(6,5,2) + x(6,5,3) + x(6,5,4) + x(6,5,5) + x(6,5,6)
                  + x(6,14,0) + x(6,15,1) + x(6,16,2) + x(6,17,3) + x(6,18,4)
                  + x(6,19,5) + x(6,20,6)  = 1
 Constraint1_2:   x(7,0,0) + x(7,1,0) + x(7,2,0) + x(7,3,0) + x(7,4,0)
                  + x(7,5,0) + x(7,6,0)  = 1
 Constraint1_3:   x(8,0,1) + x(8,1,1) + x(8,2,1) + x(8,3,1) + x(8,4,1)
                  + x(8,5,1) + x(8,6,1)  = 1
 Constraint1_4:   x(9,0,2) + x(9,1,2) + x(9,2,2) + x(9,3,2) + x(9,4,2)
                  + x(9,5,2) + x(9,6,2)  = 1
 Constraint1_5:   x(10,0,3) + x(10,1,3) + x(10,2,3) + x(10,3,3) + x(10,4,3)
                  + x(10,5,3) + x(10,6,3)  = 1
 Constraint1_6:   x(11,0,4) + x(11,1,4) + x(11,2,4) + x(11,3,4) + x(11,4,4)
                  + x(11,5,4) + x(11,6,4)  = 1
 Constraint2_0:   x(6,0,0) + x(6,0,1) + x(6,0,2) + x(6,0,3) + x(6,0,4)
                  + x(6,0,5) + x(6,0,6) + x(6,1,0) + x(6,1,1) + x(6,1,2)
                  + x(6,1,3) + x(6,1,4) + x(6,1,5) + x(6,1,6) + x(6,2,0)
                  + x(6,2,1) + x(6,2,2) + x(6,2,3) + x(6,2,4) + x(6,2,5)
                  + x(6,2,6) + x(6,4,0) + x(6,4,1) + x(6,4,2) + x(6,4,3)
                  + x(6,4,4) + x(6,4,5) + x(6,4,6) + x(6,5,0) + x(6,5,1)
                  + x(6,5,2) + x(6,5,3) + x(6,5,4) + x(6,5,5) + x(6,5,6)
                  + x(7,0,0) + x(7,1,0) + x(7,2,0) + x(7,3,0) + x(7,4,0)
                  + x(7,5,0) + x(8,0,1) + x(8,1,1) + x(8,2,1) + x(8,3,1)
                  + x(8,4,1) + x(8,5,1) + x(9,0,2) + x(9,1,2) + x(9,2,2)
                  + x(9,3,2) + x(9,4,2) + x(9,5,2) + x(10,0,3) + x(10,1,3)
                  + x(10,2,3) + x(10,3,3) + x(10,4,3) + x(10,5,3) + x(11,0,4)
                  + x(11,1,4) + x(11,2,4) + x(11,3,4) + x(11,4,4) + x(11,5,4)
                  + x(12,0,5) + x(12,1,5) + x(12,2,5) + x(12,3,5) + x(12,4,5)
                  + x(12,5,5) + x(13,0,6) + x(13,1,6) + x(13,2,6) + x(13,3,6)
                  + x(13,4,6) + x(13,5,6)  = 1
 Constraint2_1:   x(3,6,0) + x(3,6,1) + x(3,6,2) + x(3,6,3) + x(3,6,4)
                  + x(3,6,5) + x(3,6,6) + x(7,6,0) + x(8,6,1) + x(9,6,2)
                  + x(10,6,3) + x(11,6,4) + x(12,6,5) + x(13,6,6)  = 1
 Constraint2_2:    = 1
 Constraint2_3:    = 1
 Constraint2_4:    = 1
 Constraint2_5:    = 1
 Constraint2_6:    = 1
 Constraint3_0:   x(7,0,0) + x(7,1,0) + x(7,2,0) + x(7,3,0) + x(7,4,0)
                  + x(7,5,0) + x(7,6,0)  = 1
 Constraint3_1:   x(8,0,1) + x(8,1,1) + x(8,2,1) + x(8,3,1) + x(8,4,1)
                  + x(8,5,1) + x(8,6,1)  = 1
 Constraint3_2:   x(9,0,2) + x(9,1,2) + x(9,2,2) + x(9,3,2) + x(9,4,2)
                  + x(9,5,2) + x(9,6,2)  = 1
 Constraint3_3:   x(10,0,3) + x(10,1,3) + x(10,2,3) + x(10,3,3) + x(10,4,3)
                  + x(10,5,3) + x(10,6,3)  = 1
 Constraint3_4:   x(11,0,4) + x(11,1,4) + x(11,2,4) + x(11,3,4) + x(11,4,4)
                  + x(11,5,4) + x(11,6,4)  = 1
 Constraint3_5:   x(12,0,5) + x(12,1,5) + x(12,2,5) + x(12,3,5) + x(12,4,5)
                  + x(12,5,5) + x(12,6,5)  = 1
 Constraint3_6:   x(13,0,6) + x(13,1,6) + x(13,2,6) + x(13,3,6) + x(13,4,6)
                  + x(13,5,6) + x(13,6,6)  = 1
 Constraint4_0:   x(0,14,0) + x(1,14,0) + x(2,14,0) + x(3,14,0) + x(4,14,0)
                  + x(5,14,0) + x(6,14,0)  = 1
 Constraint4_1:   x(0,15,1) + x(1,15,1) + x(2,15,1) + x(3,15,1) + x(4,15,1)
                  + x(5,15,1) + x(6,15,1)  = 1
 Constraint4_2:   x(0,16,2) + x(1,16,2) + x(2,16,2) + x(3,16,2) + x(4,16,2)
                  + x(5,16,2) + x(6,16,2)  = 1
 Constraint4_3:   x(0,17,3) + x(1,17,3) + x(2,17,3) + x(3,17,3) + x(4,17,3)
                  + x(5,17,3) + x(6,17,3)  = 1
 Constraint4_4:   x(0,18,4) + x(1,18,4) + x(2,18,4) + x(3,18,4) + x(4,18,4)
                  + x(5,18,4) + x(6,18,4)  = 1
 Constraint4_5:   x(0,19,5) + x(1,19,5) + x(2,19,5) + x(3,19,5) + x(4,19,5)
                  + x(5,19,5) + x(6,19,5)  = 1
 Constraint4_6:   x(0,20,6) + x(1,20,6) + x(2,20,6) + x(3,20,6) + x(4,20,6)
                  + x(5,20,6) + x(6,20,6)  = 1
 Constraint5_7:   <= 1
 Constraint5_8:   <= 1
 Constraint5_9:   <= 1
 Constraint5_10:  <= 1
 Constraint5_11:  <= 1
 Constraint6_0_0: x(0,14,0) - x(6,0,0) - x(7,0,0)  = 0
 Constraint6_0_1: x(0,15,1) - x(6,0,1) - x(8,0,1)  = 0
 Constraint6_0_2: x(0,16,2) - x(6,0,2) - x(9,0,2)  = 0
 Constraint6_0_3: x(0,17,3) - x(6,0,3) - x(10,0,3)  = 0
 Constraint6_0_4: x(0,18,4) - x(6,0,4) - x(11,0,4)  = 0
 Constraint6_0_5: x(0,19,5) - x(6,0,5) - x(12,0,5)  = 0
 Constraint6_0_6: x(0,20,6) - x(6,0,6) - x(13,0,6)  = 0
 Constraint6_1_0: x(1,14,0) - x(6,1,0) - x(7,1,0)  = 0
 Constraint6_1_1: x(1,15,1) - x(6,1,1) - x(8,1,1)  = 0
 Constraint6_1_2: x(1,16,2) - x(6,1,2) - x(9,1,2)  = 0
 Constraint6_1_3: x(1,17,3) - x(6,1,3) - x(10,1,3)  = 0
 Constraint6_1_4: x(1,18,4) - x(6,1,4) - x(11,1,4)  = 0
 Constraint6_1_5: x(1,19,5) - x(6,1,5) - x(12,1,5)  = 0
 Constraint6_1_6: x(1,20,6) - x(6,1,6) - x(13,1,6)  = 0
 Constraint6_2_0: x(2,14,0) - x(6,2,0) - x(7,2,0)  = 0
 Constraint6_2_1: x(2,15,1) - x(6,2,1) - x(8,2,1)  = 0
 Constraint6_2_2: x(2,16,2) - x(6,2,2) - x(9,2,2)  = 0
 Constraint6_2_3: x(2,17,3) - x(6,2,3) - x(10,2,3)  = 0
 Constraint6_2_4: x(2,18,4) - x(6,2,4) - x(11,2,4)  = 0
 Constraint6_2_5: x(2,19,5) - x(6,2,5) - x(12,2,5)  = 0
 Constraint6_2_6: x(2,20,6) - x(6,2,6) - x(13,2,6)  = 0
 Constraint6_3_0: x(3,6,0) + x(3,14,0) - x(7,3,0)  = 0
 Constraint6_3_1: x(3,6,1) + x(3,15,1) - x(8,3,1)  = 0
 Constraint6_3_2: x(3,6,2) + x(3,16,2) - x(9,3,2)  = 0
 Constraint6_3_3: x(3,6,3) + x(3,17,3) - x(10,3,3)  = 0
 Constraint6_3_4: x(3,6,4) + x(3,18,4) - x(11,3,4)  = 0
 Constraint6_3_5: x(3,6,5) + x(3,19,5) - x(12,3,5)  = 0
 Constraint6_3_6: x(3,6,6) + x(3,20,6) - x(13,3,6)  = 0
 Constraint6_4_0: x(4,14,0) - x(6,4,0) - x(7,4,0)  = 0
 Constraint6_4_1: x(4,15,1) - x(6,4,1) - x(8,4,1)  = 0
 Constraint6_4_2: x(4,16,2) - x(6,4,2) - x(9,4,2)  = 0
 Constraint6_4_3: x(4,17,3) - x(6,4,3) - x(10,4,3)  = 0
 Constraint6_4_4: x(4,18,4) - x(6,4,4) - x(11,4,4)  = 0
 Constraint6_4_5: x(4,19,5) - x(6,4,5) - x(12,4,5)  = 0
 Constraint6_4_6: x(4,20,6) - x(6,4,6) - x(13,4,6)  = 0
 Constraint6_5_0: x(5,14,0) - x(6,5,0) - x(7,5,0)  = 0
 Constraint6_5_1: x(5,15,1) - x(6,5,1) - x(8,5,1)  = 0
 Constraint6_5_2: x(5,16,2) - x(6,5,2) - x(9,5,2)  = 0
 Constraint6_5_3: x(5,17,3) - x(6,5,3) - x(10,5,3)  = 0
 Constraint6_5_4: x(5,18,4) - x(6,5,4) - x(11,5,4)  = 0
 Constraint6_5_5: x(5,19,5) - x(6,5,5) - x(12,5,5)  = 0
 Constraint6_5_6: x(5,20,6) - x(6,5,6) - x(13,5,6)  = 0
 Constraint6_6_0: - x(3,6,0) + x(6,0,0) + x(6,1,0) + x(6,2,0) + x(6,4,0)
                  + x(6,5,0) + x(6,14,0) - x(7,6,0)  = 0
 Constraint6_6_1: - x(3,6,1) + x(6,0,1) + x(6,1,1) + x(6,2,1) + x(6,4,1)
                  + x(6,5,1) + x(6,15,1) - x(8,6,1)  = 0
 Constraint6_6_2: - x(3,6,2) + x(6,0,2) + x(6,1,2) + x(6,2,2) + x(6,4,2)
                  + x(6,5,2) + x(6,16,2) - x(9,6,2)  = 0
 Constraint6_6_3: - x(3,6,3) + x(6,0,3) + x(6,1,3) + x(6,2,3) + x(6,4,3)
                  + x(6,5,3) + x(6,17,3) - x(10,6,3)  = 0
 Constraint6_6_4: - x(3,6,4) + x(6,0,4) + x(6,1,4) + x(6,2,4) + x(6,4,4)
                  + x(6,5,4) + x(6,18,4) - x(11,6,4)  = 0
 Constraint6_6_5: - x(3,6,5) + x(6,0,5) + x(6,1,5) + x(6,2,5) + x(6,4,5)
                  + x(6,5,5) + x(6,19,5) - x(12,6,5)  = 0
 Constraint6_6_6: - x(3,6,6) + x(6,0,6) + x(6,1,6) + x(6,2,6) + x(6,4,6)
                  + x(6,5,6) + x(6,20,6) - x(13,6,6)  = 0
 Constraint7_0:   12.1169918699187 x(0,14,0) + 10.9232520325203 x(1,14,0)
                  + 7.35772357723577 x(2,14,0) + 1.72585365853659 x(3,14,0)
                  + 18.8730081300813 x(4,14,0) + 11.3450406504065 x(5,14,0)
                  + 5.59544715447154 x(6,14,0) - 11.0278861788618 x(7,0,0)
                  - 9.97073170731707 x(7,1,0) - 6.28227642276423 x(7,2,0)
                  - 0.796747967479675 x(7,3,0) - 18.2614634146341 x(7,4,0)
                  - 10.5910569105691 x(7,5,0) - 4.71365853658537 x(7,6,0) <= 8
 Constraint7_1:   12.1169918699187 x(0,15,1) + 10.9232520325203 x(1,15,1)
                  + 7.35772357723577 x(2,15,1) + 1.72585365853659 x(3,15,1)
                  + 18.8730081300813 x(4,15,1) + 11.3450406504065 x(5,15,1)
                  + 5.59544715447154 x(6,15,1) - 11.0278861788618 x(8,0,1)
                  - 9.97073170731707 x(8,1,1) - 6.28227642276423 x(8,2,1)
                  - 0.796747967479675 x(8,3,1) - 18.2614634146341 x(8,4,1)
                  - 10.5910569105691 x(8,5,1) - 4.71365853658537 x(8,6,1) <= 8
 Constraint7_2:   12.1169918699187 x(0,16,2) + 10.9232520325203 x(1,16,2)
                  + 7.35772357723577 x(2,16,2) + 1.72585365853659 x(3,16,2)
                  + 18.8730081300813 x(4,16,2) + 11.3450406504065 x(5,16,2)
                  + 5.59544715447154 x(6,16,2) - 11.0278861788618 x(9,0,2)
                  - 9.97073170731707 x(9,1,2) - 6.28227642276423 x(9,2,2)
                  - 0.796747967479675 x(9,3,2) - 18.2614634146341 x(9,4,2)
                  - 10.5910569105691 x(9,5,2) - 4.71365853658537 x(9,6,2) <= 8
 Constraint7_3:   12.1169918699187 x(0,17,3) + 10.9232520325203 x(1,17,3)
                  + 7.35772357723577 x(2,17,3) + 1.72585365853659 x(3,17,3)
                  + 18.8730081300813 x(4,17,3) + 11.3450406504065 x(5,17,3)
                  + 5.59544715447154 x(6,17,3) - 11.0278861788618 x(10,0,3)
                  - 9.97073170731707 x(10,1,3) - 6.28227642276423 x(10,2,3)
                  - 0.796747967479675 x(10,3,3) - 18.2614634146341 x(10,4,3)
                  - 10.5910569105691 x(10,5,3) - 4.71365853658537 x(10,6,3)
                  <= 8
 Constraint7_4:   12.1169918699187 x(0,18,4) + 10.9232520325203 x(1,18,4)
                  + 7.35772357723577 x(2,18,4) + 1.72585365853659 x(3,18,4)
                  + 18.8730081300813 x(4,18,4) + 11.3450406504065 x(5,18,4)
                  + 5.59544715447154 x(6,18,4) - 11.0278861788618 x(11,0,4)
                  - 9.97073170731707 x(11,1,4) - 6.28227642276423 x(11,2,4)
                  - 0.796747967479675 x(11,3,4) - 18.2614634146341 x(11,4,4)
                  - 10.5910569105691 x(11,5,4) - 4.71365853658537 x(11,6,4)
                  <= 8
 Constraint7_5:   12.1169918699187 x(0,19,5) + 10.9232520325203 x(1,19,5)
                  + 7.35772357723577 x(2,19,5) + 1.72585365853659 x(3,19,5)
                  + 18.8730081300813 x(4,19,5) + 11.3450406504065 x(5,19,5)
                  + 5.59544715447154 x(6,19,5) - 11.0278861788618 x(12,0,5)
                  - 9.97073170731707 x(12,1,5) - 6.28227642276423 x(12,2,5)
                  - 0.796747967479675 x(12,3,5) - 18.2614634146341 x(12,4,5)
                  - 10.5910569105691 x(12,5,5) - 4.71365853658537 x(12,6,5)
                  <= 8
 Constraint7_6:   12.1169918699187 x(0,20,6) + 10.9232520325203 x(1,20,6)
                  + 7.35772357723577 x(2,20,6) + 1.72585365853659 x(3,20,6)
                  + 18.8730081300813 x(4,20,6) + 11.3450406504065 x(5,20,6)
                  + 5.59544715447154 x(6,20,6) - 11.0278861788618 x(13,0,6)
                  - 9.97073170731707 x(13,1,6) - 6.28227642276423 x(13,2,6)
                  - 0.796747967479675 x(13,3,6) - 18.2614634146341 x(13,4,6)
                  - 10.5910569105691 x(13,5,6) - 4.71365853658537 x(13,6,6)
                  <= 8
Bounds
 0 <= x(0,14,0) <= 1
 0 <= x(0,15,1) <= 1
 0 <= x(0,16,2) <= 1
 0 <= x(0,17,3) <= 1
 0 <= x(0,18,4) <= 1
 0 <= x(0,19,5) <= 1
 0 <= x(0,20,6) <= 1
 0 <= x(1,14,0) <= 1
 0 <= x(1,15,1) <= 1
 0 <= x(1,16,2) <= 1
 0 <= x(1,17,3) <= 1
 0 <= x(1,18,4) <= 1
 0 <= x(1,19,5) <= 1
 0 <= x(1,20,6) <= 1
 0 <= x(2,14,0) <= 1
 0 <= x(2,15,1) <= 1
 0 <= x(2,16,2) <= 1
 0 <= x(2,17,3) <= 1
 0 <= x(2,18,4) <= 1
 0 <= x(2,19,5) <= 1
 0 <= x(2,20,6) <= 1
 0 <= x(3,6,0) <= 1
 0 <= x(3,6,1) <= 1
 0 <= x(3,6,2) <= 1
 0 <= x(3,6,3) <= 1
 0 <= x(3,6,4) <= 1
 0 <= x(3,6,5) <= 1
 0 <= x(3,6,6) <= 1
 0 <= x(3,14,0) <= 1
 0 <= x(3,15,1) <= 1
 0 <= x(3,16,2) <= 1
 0 <= x(3,17,3) <= 1
 0 <= x(3,18,4) <= 1
 0 <= x(3,19,5) <= 1
 0 <= x(3,20,6) <= 1
 0 <= x(4,14,0) <= 1
 0 <= x(4,15,1) <= 1
 0 <= x(4,16,2) <= 1
 0 <= x(4,17,3) <= 1
 0 <= x(4,18,4) <= 1
 0 <= x(4,19,5) <= 1
 0 <= x(4,20,6) <= 1
 0 <= x(5,14,0) <= 1
 0 <= x(5,15,1) <= 1
 0 <= x(5,16,2) <= 1
 0 <= x(5,17,3) <= 1
 0 <= x(5,18,4) <= 1
 0 <= x(5,19,5) <= 1
 0 <= x(5,20,6) <= 1
 0 <= x(6,0,0) <= 1
 0 <= x(6,0,1) <= 1
 0 <= x(6,0,2) <= 1
 0 <= x(6,0,3) <= 1
 0 <= x(6,0,4) <= 1
 0 <= x(6,0,5) <= 1
 0 <= x(6,0,6) <= 1
 0 <= x(6,1,0) <= 1
 0 <= x(6,1,1) <= 1
 0 <= x(6,1,2) <= 1
 0 <= x(6,1,3) <= 1
 0 <= x(6,1,4) <= 1
 0 <= x(6,1,5) <= 1
 0 <= x(6,1,6) <= 1
 0 <= x(6,2,0) <= 1
 0 <= x(6,2,1) <= 1
 0 <= x(6,2,2) <= 1
 0 <= x(6,2,3) <= 1
 0 <= x(6,2,4) <= 1
 0 <= x(6,2,5) <= 1
 0 <= x(6,2,6) <= 1
 0 <= x(6,4,0) <= 1
 0 <= x(6,4,1) <= 1
 0 <= x(6,4,2) <= 1
 0 <= x(6,4,3) <= 1
 0 <= x(6,4,4) <= 1
 0 <= x(6,4,5) <= 1
 0 <= x(6,4,6) <= 1
 0 <= x(6,5,0) <= 1
 0 <= x(6,5,1) <= 1
 0 <= x(6,5,2) <= 1
 0 <= x(6,5,3) <= 1
 0 <= x(6,5,4) <= 1
 0 <= x(6,5,5) <= 1
 0 <= x(6,5,6) <= 1
 0 <= x(6,14,0) <= 1
 0 <= x(6,15,1) <= 1
 0 <= x(6,16,2) <= 1
 0 <= x(6,17,3) <= 1
 0 <= x(6,18,4) <= 1
 0 <= x(6,19,5) <= 1
 0 <= x(6,20,6) <= 1
 0 <= x(7,0,0) <= 1
 0 <= x(7,1,0) <= 1
 0 <= x(7,2,0) <= 1
 0 <= x(7,3,0) <= 1
 0 <= x(7,4,0) <= 1
 0 <= x(7,5,0) <= 1
 0 <= x(7,6,0) <= 1
 0 <= x(8,0,1) <= 1
 0 <= x(8,1,1) <= 1
 0 <= x(8,2,1) <= 1
 0 <= x(8,3,1) <= 1
 0 <= x(8,4,1) <= 1
 0 <= x(8,5,1) <= 1
 0 <= x(8,6,1) <= 1
 0 <= x(9,0,2) <= 1
 0 <= x(9,1,2) <= 1
 0 <= x(9,2,2) <= 1
 0 <= x(9,3,2) <= 1
 0 <= x(9,4,2) <= 1
 0 <= x(9,5,2) <= 1
 0 <= x(9,6,2) <= 1
 0 <= x(10,0,3) <= 1
 0 <= x(10,1,3) <= 1
 0 <= x(10,2,3) <= 1
 0 <= x(10,3,3) <= 1
 0 <= x(10,4,3) <= 1
 0 <= x(10,5,3) <= 1
 0 <= x(10,6,3) <= 1
 0 <= x(11,0,4) <= 1
 0 <= x(11,1,4) <= 1
 0 <= x(11,2,4) <= 1
 0 <= x(11,3,4) <= 1
 0 <= x(11,4,4) <= 1
 0 <= x(11,5,4) <= 1
 0 <= x(11,6,4) <= 1
 0 <= x(12,0,5) <= 1
 0 <= x(12,1,5) <= 1
 0 <= x(12,2,5) <= 1
 0 <= x(12,3,5) <= 1
 0 <= x(12,4,5) <= 1
 0 <= x(12,5,5) <= 1
 0 <= x(12,6,5) <= 1
 0 <= x(13,0,6) <= 1
 0 <= x(13,1,6) <= 1
 0 <= x(13,2,6) <= 1
 0 <= x(13,3,6) <= 1
 0 <= x(13,4,6) <= 1
 0 <= x(13,5,6) <= 1
 0 <= x(13,6,6) <= 1
 0 <= u(0) <= 24
 0 <= u(1) <= 24
 0 <= u(2) <= 24
 0 <= u(3) <= 24
 0 <= u(4) <= 24
 0 <= u(5) <= 24
 0 <= u(6) <= 24
 0 <= uf(0) <= 24
 0 <= uf(1) <= 24
 0 <= uf(2) <= 24
 0 <= uf(3) <= 24
 0 <= uf(4) <= 24
 0 <= uf(5) <= 24
 0 <= uf(6) <= 24
Binaries
 x(0,14,0)  x(0,15,1)  x(0,16,2)  x(0,17,3)  x(0,18,4)  x(0,19,5)  x(0,20,6) 
 x(1,14,0)  x(1,15,1)  x(1,16,2)  x(1,17,3)  x(1,18,4)  x(1,19,5)  x(1,20,6) 
 x(2,14,0)  x(2,15,1)  x(2,16,2)  x(2,17,3)  x(2,18,4)  x(2,19,5)  x(2,20,6) 
 x(3,6,0)  x(3,6,1)  x(3,6,2)  x(3,6,3)  x(3,6,4)  x(3,6,5)  x(3,6,6) 
 x(3,14,0)  x(3,15,1)  x(3,16,2)  x(3,17,3)  x(3,18,4)  x(3,19,5)  x(3,20,6) 
 x(4,14,0)  x(4,15,1)  x(4,16,2)  x(4,17,3)  x(4,18,4)  x(4,19,5)  x(4,20,6) 
 x(5,14,0)  x(5,15,1)  x(5,16,2)  x(5,17,3)  x(5,18,4)  x(5,19,5)  x(5,20,6) 
 x(6,0,0)  x(6,0,1)  x(6,0,2)  x(6,0,3)  x(6,0,4)  x(6,0,5)  x(6,0,6) 
 x(6,1,0)  x(6,1,1)  x(6,1,2)  x(6,1,3)  x(6,1,4)  x(6,1,5)  x(6,1,6) 
 x(6,2,0)  x(6,2,1)  x(6,2,2)  x(6,2,3)  x(6,2,4)  x(6,2,5)  x(6,2,6) 
 x(6,4,0)  x(6,4,1)  x(6,4,2)  x(6,4,3)  x(6,4,4)  x(6,4,5)  x(6,4,6) 
 x(6,5,0)  x(6,5,1)  x(6,5,2)  x(6,5,3)  x(6,5,4)  x(6,5,5)  x(6,5,6) 
 x(6,14,0)  x(6,15,1)  x(6,16,2)  x(6,17,3)  x(6,18,4)  x(6,19,5)  x(6,20,6) 
 x(7,0,0)  x(7,1,0)  x(7,2,0)  x(7,3,0)  x(7,4,0)  x(7,5,0)  x(7,6,0) 
 x(8,0,1)  x(8,1,1)  x(8,2,1)  x(8,3,1)  x(8,4,1)  x(8,5,1)  x(8,6,1) 
 x(9,0,2)  x(9,1,2)  x(9,2,2)  x(9,3,2)  x(9,4,2)  x(9,5,2)  x(9,6,2) 
 x(10,0,3)  x(10,1,3)  x(10,2,3)  x(10,3,3)  x(10,4,3)  x(10,5,3)  x(10,6,3) 
 x(11,0,4)  x(11,1,4)  x(11,2,4)  x(11,3,4)  x(11,4,4)  x(11,5,4)  x(11,6,4) 
 x(12,0,5)  x(12,1,5)  x(12,2,5)  x(12,3,5)  x(12,4,5)  x(12,5,5)  x(12,6,5) 
 x(13,0,6)  x(13,1,6)  x(13,2,6)  x(13,3,6)  x(13,4,6)  x(13,5,6)  x(13,6,6) 
End
